
Gurobi 11.0.3 (linux64) logging started Sun Jun  1 10:36:15 2025

Set parameter LogFile to value "/home/yihong/Coding/SFLA+ED/PD_results_bigM100000_thread4/case24_ieee_rts_theta0.25_epsilon0.03_gurobi_seed60000_num_gen38_N_WDR80_load_scaling_factor1_CVAR_T12.txt"
Set parameter TimeLimit to value 3600
Gurobi Optimizer version 11.0.3 build v11.0.3rc0 (linux64 - "Ubuntu 20.04.6 LTS")

CPU model: AMD EPYC 7532 32-Core Processor, instruction set [SSE2|AVX|AVX2]
Thread count: 64 physical cores, 128 logical processors, using up to 4 threads

Optimize a model with 183336 rows, 993 columns and 9175584 nonzeros
Model fingerprint: 0xf183219b
Model has 456 quadratic objective terms
Coefficient statistics:
  Matrix range     [5e-06, 8e+01]
  Objective range  [2e+01, 5e+01]
  QObjective range [4e-03, 2e-02]
  Bounds range     [0e+00, 0e+00]
  RHS range        [3e-02, 9e+02]
Presolve removed 49176 rows and 0 columns
Presolve time: 2.13s
Presolved: 134160 rows, 993 columns, 4727688 nonzeros
Presolved model has 456 quadratic objective terms
Ordering time: 0.77s

Barrier statistics:
 Dense cols : 945
 Free vars  : 456
 AA' NZ     : 5.041e+06
 Factor NZ  : 6.468e+06 (roughly 100 MB of memory)
 Factor Ops : 8.155e+08 (less than 1 second per iteration)
 Threads    : 4

                  Objective                Residual
Iter       Primal          Dual         Primal    Dual     Compl     Time
   0   2.92691707e+08 -1.59258601e+08  3.80e+04 9.89e+02  9.71e+05    80s
   1   1.56253168e+08  3.27402375e+08  2.49e+04 6.48e+02  6.42e+05    80s
   2   1.52819390e+08 -1.29153614e+09  2.45e+04 6.38e+02  6.37e+05    80s
   3   1.19907189e+08 -1.26702330e+09  2.06e+04 5.36e+02  5.59e+05    80s
   4   1.30095759e+07 -4.40473207e+09  3.24e+03 8.44e+01  1.43e+05    81s
   5   1.58839351e+06 -1.82044194e+09  3.39e+02 8.82e+00  2.26e+04    81s
   6   4.57146470e+05 -4.59252615e+08  2.37e+01 6.16e-01  3.91e+03    81s
   7   4.46053115e+05 -4.05951330e+08  2.06e+01 5.36e-01  3.41e+03    81s
   8   4.24402084e+05 -3.38223881e+08  1.47e+01 3.82e-01  2.79e+03    81s
   9   4.17903215e+05 -3.15724294e+08  1.29e+01 3.36e-01  2.58e+03    81s
  10   3.96188784e+05 -2.07169703e+08  6.93e+00 1.80e-01  1.65e+03    81s
  11   3.93467319e+05 -1.92395613e+08  6.19e+00 1.61e-01  1.54e+03    81s
  12   3.91496590e+05 -1.76810205e+08  5.65e+00 1.47e-01  1.45e+03    82s
  13   3.90521873e+05 -1.62989565e+08  5.38e+00 1.40e-01  1.38e+03    82s
  14   3.89965527e+05 -1.52500256e+08  5.22e+00 1.36e-01  1.34e+03    82s
  15   3.89438869e+05 -1.42525979e+08  5.06e+00 1.32e-01  1.30e+03    82s
  16   3.80430771e+05 -1.12221434e+08  2.65e+00 6.90e-02  9.33e+02    82s
  17   3.73001318e+05 -3.69297911e+07  5.84e-01 1.52e-02  2.86e+02    82s
  18   3.70884246e+05 -2.26524922e+06  8.71e-03 2.27e-04  1.95e+01    82s
  19   3.69322137e+05  1.87057597e+05  5.42e-04 1.41e-05  1.35e+00    82s
  20   3.62673729e+05  2.55428173e+05  2.55e-04 6.64e-06  7.94e-01    82s
  21   3.57858902e+05  2.86805798e+05  1.37e-04 3.57e-06  5.26e-01    83s
  22   3.54691430e+05  3.06641324e+05  7.95e-05 2.07e-06  3.56e-01    83s
  23   3.52886093e+05  3.16747861e+05  5.17e-05 1.35e-06  2.67e-01    83s
  24   3.51102090e+05  3.26376801e+05  2.96e-05 7.71e-07  1.83e-01    83s
  25   3.49985708e+05  3.31318010e+05  1.86e-05 4.85e-07  1.38e-01    83s
  26   3.49020147e+05  3.35537592e+05  1.19e-05 3.09e-07  9.98e-02    83s
  27   3.48294711e+05  3.38613039e+05  7.09e-06 2.30e-07  7.17e-02    83s
  28   3.47440421e+05  3.42263946e+05  2.11e-06 1.95e-07  3.83e-02    83s
  29   3.47168337e+05  3.43410501e+05  1.37e-06 2.09e-07  2.78e-02    84s
  30   3.46895068e+05  3.44516577e+05  5.38e-07 2.42e-07  1.76e-02    84s
  31   3.46805006e+05  3.44892745e+05  3.73e-07 2.07e-07  1.42e-02    84s
  32   3.46739123e+05  3.45166190e+05  1.38e-07 1.04e-07  1.16e-02    84s
  33   3.46610860e+05  3.45678349e+05  7.10e-08 1.32e-07  6.90e-03    84s
  34   3.46544763e+05  3.45939369e+05  2.78e-08 1.15e-07  4.48e-03    84s
  35   3.46480747e+05  3.46189428e+05  7.35e-09 1.13e-08  2.16e-03    84s
  36   3.46448143e+05  3.46316283e+05  1.49e-09 2.14e-09  9.76e-04    84s
  37   3.46440341e+05  3.46345409e+05  7.58e-10 1.09e-09  7.03e-04    85s
  38   3.46428260e+05  3.46391701e+05  4.62e-11 6.63e-11  2.71e-04    85s
  39   3.46425588e+05  3.46401743e+05  1.93e-11 2.77e-11  1.76e-04    85s
  40   3.46420804e+05  3.46419839e+05  8.53e-14 9.55e-12  7.14e-06    85s
  41   3.46420603e+05  3.46420601e+05  3.91e-14 2.23e-11  1.12e-08    85s
  42   3.46420603e+05  3.46420603e+05  4.26e-14 3.14e-09  1.12e-11    85s

Barrier solved model in 42 iterations and 85.49 seconds (103.01 work units)
Optimal objective 3.46420603e+05

